4530 6427
5755 2517
7468 78
3163 3986
7174 4696
6066 9612
3060 1072
6460 3687
3326 9523
8371 5843
1124 162
3972 598
4532 6344
3196 2829
7843 3472
6076 6864
687 7134
2106 9618
9160 8556
8454 6557
1340 6662
8221 1065
7075 6485
9922 8070
6478 6623
7980 3928
5287 4061
5927 8915
8509 8814
662 3830
1547 7094
6048 2981
9350 470
6985 8617
5667 2860
2075 4065
7832 4923
6180 5602
6353 1951
3873 4620
3369 3241
2410 9525
9731 7330
6617 6613
6438 1848
7227 626
1831 6373
3644 4424
4914 6441
9937 8914
